c --- [ banner ] -------------------------------------------------------------
c 
c CaDiCaL SAT Solver
c Copyright (c) 2016-2023 A. Biere, M. Fleury, N. Froleyks, K. Fazekas, F. Pollitt
c 
c Version 1.9.5
c g++ (Ubuntu 11.4.0-1ubuntu1~22.04) 11.4.0 -Wall -Wextra -O3 -DNDEBUG -static
c Thu Mar 7 06:16:21 CET 2024 Linux pc101447 6.5.0-17-generic x86_64
c 
c --- [ limit ] --------------------------------------------------------------
c 
c setting time limit to 3600 seconds real time (due to '-t 3600')
c 
c --- [ parsing input ] ------------------------------------------------------
c 
c reading DIMACS file from '/home/oliveras/SAT-comp-2023//29bab0de14e56e526be9683131005cb2-stb_588_138.apx_2_DS-ST.cnf'
c opening file to read '/home/oliveras/SAT-comp-2023//29bab0de14e56e526be9683131005cb2-stb_588_138.apx_2_DS-ST.cnf'
c found 'p cnf 1176 13650' header
c parsed 13650 clauses in 0.01 seconds process time
c 
c --- [ options ] ------------------------------------------------------------
c 
c   --seed=1                       (different from default '0')
c 
c --- [ solving ] ------------------------------------------------------------
c 
c time measured in process time since initialization
c 
c  seconds  reductions  redundant  irredundant
c         MB    restarts       trail     variables
c          level   conflicts       glue       remaining
c 
c *  0.01  2  0 0   0    0    0  0% 0 13472 1100 94%
c {  0.01  2  0 0   0    0    0  0% 0 13472 1100 94%
c -  0.03  3 60 1   1  303  285 60% 22 12287 1100 94%
c -  0.07  3 45 2   2  903  668 59% 19 12287 1100 94%
c }  0.07  3 43 2   3 1002  759 59% 19 12287 1100 94%
c [  0.07  3  0 2   3 1002  759  0% 0 12287 1100 94%
c O  0.07  3 15 2   3 1003  760 63% 8 12287 1100 94%
c -  0.11  3 15 3   3 1803  969 63% 12 12287 1100 94%
c ]  0.17  3 16 3   4 3002 1941 63% 12 12287 1100 94%
c {  0.17  3 43 3   4 3002 1941 59% 19 12287 1100 94%
c -  0.17  3 43 4   4 3005 1367 59% 19 12287 1100 94%
c F  0.17  3 43 4   4 3006 1368 59% 19 12287 1100 94%
c -  0.25  3 28 5   6 4506 1840 61% 15 12287 1100 94%
c d  0.28  3 26 5   6 5002 2255 61% 14 11187 550 47%
c 2  0.28  4 26 5   6 5002 2255 61% 14 4093 550 47%
c p  0.28  4 26 5   6 5002 2259 61% 14 4093 550 47%
c #  0.32  3 23 5   6 6009 2986 62% 13 4093 550 47%
c -  0.34  4 23 6   6 6306 2057 61% 13 4093 550 47%
c }  0.36  4 22 6  12 7002 2650 61% 13 4093 550 47%
c [  0.36  4 16 6  12 7002 2650 134% 12 4093 550 47%
c 
c  seconds  reductions  redundant   irredundant
c         MB    restarts       trail      variables
c          level   conflicts        glue      remaining
c 
c s  0.38  4 16 6  13 7231 2830 127% 13 4093 550 47%
c t  0.38  4 16 6  13 7231 2825 127% 13 4093 550 47%
c e  0.38  4 16 6  13 7231 2804 127% 13 4018 538 46%
c s  0.39  4 16 6  13 7231 2802 127% 13 4018 538 46%
c -  0.44  4 16 7  13 8408 2562 104% 13 4018 538 46%
c I  0.51  4 16 7  14 10010 3836 90% 13 4018 538 46%
c -  0.55  4 20 8  15 10810 3076 86% 14 4018 538 46%
c -  0.66  4 26 9  17 13510 3780 76% 16 4018 538 46%
c ]  0.71  4 28 9  17 15002 5160 73% 17 4018 538 46%
c {  0.71  4 22 9  17 15002 5160 61% 13 4018 538 46%
c p  0.72  4 22 9  17 15002 5164 61% 13 4018 538 46%
c B  0.72  4 22 9  17 15014 5175 61% 13 4018 538 46%
c -  0.77  4 21 10  24 16510 4174 61% 13 4018 538 46%
c -  0.90  4 18 11  24 19811 4358 61% 12 4018 538 46%
c W  0.96  4 18 11  24 21015 5290 61% 12 4018 538 46%
c -  1.05  4 17 12  60 23412 4668 61% 12 4018 538 46%
c -  1.18  4 16 13 105 27315 4994 60% 11 4018 538 46%
c F  1.21  4 16 13 114 28017 5562 60% 11 4018 538 46%
c p  1.28  4 16 13 150 30003 7181 60% 11 4018 538 46%
c }  1.31  4 16 13 162 31005 7980 60% 11 4018 538 46%
c 
c  seconds  reductions    redundant  irredundant
c         MB     restarts        trail     variables
c          level     conflicts       glue      remaining
c 
c [  1.31  4 28 13 162 31005 7980 73% 17 4018 538 46%
c -  1.33  4 27 14 162 31518 5633 73% 17 4018 538 46%
c -  1.52  4 23 15 165 36018 5852 69% 15 4018 538 46%
c B  1.52  4 23 15 165 36019 5853 69% 15 4018 538 46%
c -  1.73  5 21 16 168 40818 6245 67% 15 4018 538 46%
c W  1.93  5 21 16 169 45020 9443 66% 14 4018 538 46%
c -  1.98  4 20 17 169 45919 6802 65% 14 4018 538 46%
c p  2.17  4 19 17 170 50003 9854 64% 14 4018 538 46%
c -  2.24  5 19 18 170 51320 7184 64% 14 4018 538 46%
c O  2.40  5 19 18 171 55024 10216 64% 14 4018 538 46%
c -  2.49  5 19 19 173 57021 8046 64% 14 4018 538 46%
c ]  2.76  5 18 19 177 63005 12403 63% 13 4018 538 46%
c {  2.76  5 16 19 177 63005 12403 60% 11 4018 538 46%
c -  2.76  5 16 20 177 63021 8159 60% 11 4018 538 46%
c B  2.88  5 16 20 320 66026 10509 60% 11 4018 538 46%
c -  3.03  5 16 21 427 69321 8943 60% 11 4018 538 46%
c s  3.04  5 16 21 427 69321 8872 60% 11 4018 538 46%
c w  3.05  5 16 21 427 69321 8860 60% 11 4018 538 46%
c s  3.06  5 16 21 427 69321 8858 60% 11 4018 538 46%
c ^  3.06  5 16 21 427 69321 8858 60% 11 4018 538 46%
c 
c  seconds  reductions     redundant  irredundant
c         MB     restarts         trail     variables
c          level     conflicts        glue      remaining
c 
c p  3.30  5 15 21 518 75003 13112 60% 11 4018 538 46%
c -  3.34  6 15 22 524 75921 9162 60% 11 4018 538 46%
c W  3.45  6 15 22 595 78027 10870 60% 11 4018 538 46%
c -  3.66  6 15 23 689 82821 9760 59% 11 4018 538 46%
c s  3.83  6 14 23 716 86726 12618 59% 11 4018 538 46%
c w  3.83  6 14 23 716 86726 12615 59% 11 4018 538 46%
c e  3.84  6 14 23 716 86726 12581 59% 11 4019 537 46%
c s  3.84  6 14 23 716 86726 12581 59% 11 4019 537 46%
c ^  3.85  6 14 23 716 86726 12581 59% 11 4019 537 46%
c -  3.98  6 14 24 735 90025 10109 59% 11 4019 537 46%
c #  4.02  6 14 24 735 91028 10799 59% 11 4019 537 46%
c -  4.32  5 14 25 832 97527 10647 59% 10 4019 537 46%
c p  4.66  5 14 25 1190 105004 16342 59% 10 4019 537 46%
c B  4.67  5 14 25 1190 105030 16367 59% 10 4019 537 46%
c -  4.69  5 14 26 1251 105327 11659 59% 10 4019 537 46%
c s  4.91  5 14 26 1557 109957 15295 59% 10 4019 537 46%
c w  4.92  5 14 26 1557 109957 15294 59% 10 4019 537 46%
c e  4.93  5 14 26 1557 109957 15130 59% 10 4023 535 45%
c s  4.94  5 14 26 1557 109957 15130 59% 10 4023 535 45%
c -  5.11  6 14 27 1718 113433 12329 59% 10 4023 535 45%
c 
c  seconds  reductions       redundant  irredundant
c         MB     restarts           trail     variables
c          level      conflicts         glue      remaining
c 
c W  5.45  6 14 27 2074 120032 17407 59% 10 4023 535 45%
c -  5.54  6 14 28 2125 121835 12888 59% 10 4023 535 45%
c }  5.77  6 14 28 2151 127005 16622 59% 10 4023 535 45%
c [  5.77  6 18 28 2151 127005 16622 63% 13 4023 535 45%
c -  5.95  6 18 29 2151 130536 12715 63% 13 4023 535 45%
c B  6.23  6 18 29 2155 136035 17075 62% 13 4023 535 45%
c -  6.43  6 18 30 2158 139536 13849 62% 13 4023 535 45%
c p  6.46  6 18 30 2158 140004 14234 62% 13 4023 535 45%
c -  6.95  6 18 31 2159 148836 14170 62% 13 4023 535 45%
c W  7.22  6 17 31 2160 153036 17400 62% 13 4023 535 45%
c -  7.52  6 17 32 2160 158439 14064 62% 13 4023 535 45%
c -  8.10  6 18 33 2161 168339 14979 63% 13 4023 535 45%
c I  8.26  6 18 33 2163 171039 17221 63% 14 4023 535 45%
c -  8.68  8 20 34 2167 178539 16686 62% 15 4023 535 45%
c p  8.78  8 21 34 2167 180005 18031 62% 15 4023 535 45%
c -  9.34  8 23 35 2173 189039 17539 62% 16 4023 535 45%
c B  9.40  8 23 35 2174 190040 18410 62% 16 4023 535 45%
c -  9.97  7 23 36 2175 199839 16786 61% 16 4023 535 45%
c W 10.64  7 22 36 2182 210041 24924 61% 16 4023 535 45%
c - 10.71  9 22 37 2182 210939 17051 61% 16 4023 535 45%
c 
c  seconds  reductions       redundant  irredundant
c         MB     restarts           trail     variables
c          level      conflicts         glue      remaining
c 
c - 11.47 11 22 38 2188 222339 17976 61% 16 4023 535 45%
c p 11.66 11 22 38 2189 225007 20095 62% 16 4023 535 45%
c O 12.06 11 21 38 2190 231042 24754 62% 16 4023 535 45%
c - 12.25 11 21 39 2190 234041 17957 62% 15 4023 535 45%
c - 13.00 11 21 40 2191 246043 18486 62% 15 4023 535 45%
c B 13.46 11 20 40 2192 253043 23997 62% 15 4023 535 45%
c ] 13.59 11 20 40 2192 255005 25482 62% 15 4023 535 45%
c { 13.59 11 14 40 2192 255005 25482 59% 10 4023 535 45%
c - 13.82 11 14 41 2435 258343 19570 59% 10 4023 535 45%
c s 13.84 11 14 41 2435 258343 19479 59% 10 4023 535 45%
c w 13.86 11 14 41 2435 258343 19465 59% 10 4023 535 45%
c - 14.61 11 13 42 2893 270943 19456 59% 10 4023 535 45%
c p 14.86 11 13 42 3205 275007 22434 59% 10 4023 535 45%
c F 14.93 11 13 42 3303 276047 23230 59% 10 4023 535 45%
c - 15.44 11 13 43 3815 283843 20611 59% 10 4023 535 45%
c - 16.26 11 13 44 4567 297044 21446 59% 10 4023 535 45%
c B 16.43 11 13 44 4772 300049 23636 59% 10 4023 535 45%
c - 17.11 11 13 45 5478 310545 22059 59% 10 4023 535 45%
c - 18.07 11 13 46 6738 324347 23283 59% 10 4023 535 45%
c W 18.17 11 13 46 6744 325050 23800 59% 10 4023 535 45%
c 
c  seconds  reductions       redundant  irredundant
c         MB     restarts           trail     variables
c          level      conflicts         glue      remaining
c 
c - 19.05 12 13 47 7475 338448 23475 59% 10 4023 535 45%
c # 19.88 12 13 47 8358 351051 33038 59% 10 4023 535 45%
c - 20.02 12 13 48 8485 352848 24500 59% 10 4023 535 45%
c - 21.00 12 13 49 9079 367550 24597 59% 10 4023 535 45%
c B 21.71 12 13 49 9920 378053 32495 59% 10 4023 535 45%
c - 22.06 13 13 50 10339 382553 25821 59% 10 4023 535 45%
c - 23.18 13 13 51 11719 397855 26547 59% 10 4023 535 45%
c W 23.78 13 13 51 11997 406054 32110 59% 10 4023 535 45%
c - 24.37 13 13 52 12716 413456 26572 59% 10 4023 535 45%
c - 25.47 13 13 53 13186 429357 27024 59% 10 4023 535 45%
c F 25.86 13 13 53 13604 435056 31266 59% 10 4023 535 45%
c - 26.63 13 13 54 14344 445558 28357 59% 10 4023 535 45%
c s 26.67 13 13 54 14344 445558 28086 59% 10 4023 535 45%
c w 26.71 13 13 54 14344 445558 28070 59% 10 4023 535 45%
c - 27.95 13 13 55 15132 462058 28218 59% 10 4023 535 45%
c B 28.14 13 13 55 15141 465058 30285 59% 10 4023 535 45%
c - 29.21 13 13 56 15979 478858 29407 59% 10 4023 535 45%
c - 30.54 15 13 57 17520 495958 30833 59% 10 4023 535 45%
c W 30.65 15 13 57 17545 496060 30927 59% 10 4023 535 45%
c } 31.74 15 13 57 18273 511006 41718 59% 10 4023 535 45%
c 
c  seconds  reductions        redundant  irredundant
c         MB      restarts           trail     variables
c          level       conflicts         glue      remaining
c 
c [ 31.74 15 20 57 18273 511006 41718 62% 15 4023 535 45%
c - 31.91 13 20 58 18273 513359 30383 62% 15 4023 535 45%
c W 33.06 13 19 58 18273 528064 41612 62% 15 4023 535 45%
c - 33.29 16 19 59 18273 531060 31240 62% 14 4023 535 45%
c - 34.58 13 19 60 18279 549060 31745 62% 15 4023 535 45%
c I 35.52 13 19 60 18286 561066 41497 62% 15 4023 535 45%
c - 35.98 16 20 61 18288 567360 32423 62% 15 4023 535 45%
c - 37.39 17 22 62 18295 585961 33600 62% 16 4023 535 45%
c B 38.12 17 23 62 18301 595072 41555 62% 17 4023 535 45%
c p 38.50 17 23 62 18303 600011 45201 62% 17 4023 535 45%
c - 38.87 13 22 63 18303 604862 32905 62% 16 4023 535 45%
c - 40.32 16 22 64 18304 624062 32830 62% 16 4023 535 45%
c W 40.89 16 21 64 18309 630073 37571 62% 16 4023 535 45%
c - 41.96 16 21 65 18317 643562 32768 62% 16 4023 535 45%
c - 43.55 16 20 66 18324 663362 33267 62% 15 4023 535 45%
c s 43.59 16 20 66 18324 663362 33074 62% 15 4023 535 45%
c w 43.64 16 20 66 18324 663362 33071 62% 15 4023 535 45%
c O 43.84 16 20 66 18326 666075 35361 62% 15 4023 535 45%
c p 45.03 16 20 66 18333 680015 45319 62% 15 4023 535 45%
c - 45.29 19 20 67 18334 683462 33520 62% 15 4023 535 45%
c 
c  seconds  reductions        redundant  irredundant
c         MB      restarts           trail     variables
c          level       conflicts         glue      remaining
c 
c B 46.74 19 19 67 18335 703080 48018 62% 15 4023 535 45%
c - 46.81 19 19 68 18335 703863 33348 62% 15 4023 535 45%
c - 48.44 19 19 69 18336 724563 34110 62% 15 4023 535 45%
c W 49.97 19 19 69 18337 741081 47365 62% 15 4023 535 45%
c - 50.43 19 19 70 18337 745563 35326 62% 15 4023 535 45%
c p 52.10 19 19 70 18337 765016 49651 63% 15 4023 535 45%
c - 52.29 19 19 71 18337 766866 34968 63% 15 4023 535 45%
c I 53.26 19 18 71 18337 780083 44788 63% 15 4023 535 45%
c - 53.95 19 20 72 18337 788468 37064 62% 15 4023 535 45%
c - 55.88 15 24 73 18340 810371 40089 62% 17 4023 535 45%
c B 56.75 15 25 73 18344 820084 49218 62% 17 4023 535 45%
c - 58.19 17 26 74 18351 832571 40597 61% 18 4023 535 45%
c p 60.30 17 25 74 18361 855016 59186 62% 18 4023 535 45%
c - 60.32 16 25 75 18361 855074 39541 62% 18 4023 535 45%
c W 60.99 16 25 75 18365 861085 44106 62% 18 4023 535 45%
c - 62.34 19 25 76 18368 877874 40202 62% 18 4023 535 45%
c - 64.57 24 25 77 18375 900974 40733 61% 18 4023 535 45%
c s 64.62 24 25 77 18375 900974 40695 61% 18 4023 535 45%
c w 64.69 24 25 77 18375 900974 40688 61% 18 4023 535 45%
c O 64.87 24 25 77 18375 903087 42412 61% 18 4023 535 45%
c 
c  seconds  reductions        redundant  irredundant
c         MB      restarts           trail     variables
c          level       conflicts         glue      remaining
c 
c - 66.59 24 23 78 18384 924375 38877 62% 17 4023 535 45%
c B 68.47 24 22 78 18397 946088 55426 62% 16 4023 535 45%
c - 68.64 24 22 79 18397 948075 39868 62% 16 4023 535 45%
c p 68.80 24 22 79 18398 950017 41666 62% 16 4023 535 45%
c - 70.61 24 22 80 18399 972075 42811 61% 17 4023 535 45%
c W 72.38 24 22 80 18400 990089 58117 61% 17 4023 535 45%
c - 72.97 24 22 81 18400 996375 42805 61% 17 4023 535 45%
c - 75.13 24 22 82 18409 1020975 42633 61% 17 4023 535 45%
c ] 75.29 24 22 82 18410 1023008 44296 61% 17 4023 535 45%
c { 75.29 24 13 82 18410 1023008 44296 59% 10 4023 535 45%
c # 76.44 24 13 82 19351 1035094 53173 59% 10 4023 535 45%
c - 77.58 24 13 83 19910 1045877 42562 59% 10 4023 535 45%
c p 78.02 24 13 83 20520 1050018 45849 59% 10 4023 535 45%
c - 79.91 24 13 84 21600 1071079 44064 59% 10 4023 535 45%
c B 80.81 24 13 84 22466 1081096 51268 59% 10 4023 535 45%
c - 82.34 24 13 85 23562 1096583 45075 59% 10 4023 535 45%
c - 84.72 24 13 86 24933 1122384 45191 58% 10 4023 535 45%
c W 85.40 24 13 86 25173 1128101 49092 59% 10 4023 535 45%
c - 87.30 24 12 87 26152 1148486 45947 58% 10 4023 535 45%
c - 89.66 24 12 88 27688 1174887 46673 59% 10 4023 535 45%
c 
c  seconds  reductions         redundant  irredundant
c         MB      restarts            trail     variables
c          level        conflicts         glue      remaining
c 
c s 89.76 24 12 88 27688 1174887 45863 59% 10 4023 535 45%
c w 89.83 24 12 88 27688 1174887 45848 59% 10 4023 535 45%
c F 89.93 24 12 88 27705 1176103 46677 59% 10 4023 535 45%
c - 92.56 24 13 89 30355 1201587 48323 59% 10 4023 535 45%
c B 94.74 24 13 89 31657 1225105 64818 59% 10 4023 535 45%
c - 95.12 24 13 90 31877 1228587 48651 59% 10 4023 535 45%
c - 97.85 24 13 91 33942 1255887 49969 59% 10 4023 535 45%
c W 99.87 24 13 91 34745 1275106 63023 59% 10 4023 535 45%
c - 100.70 24 12 92 35317 1283487 49525 59% 10 4023 535 45%
c - 103.43 24 13 93 37255 1311387 51779 59% 10 4023 535 45%
c # 104.84 24 13 93 38341 1326108 62198 59% 10 4023 535 45%
c - 106.35 24 13 94 39789 1339591 52654 59% 10 4023 535 45%
c - 109.12 24 13 95 41272 1368092 52101 59% 10 4023 535 45%
c B 110.07 24 12 95 41745 1378112 58961 59% 10 4023 535 45%
c - 111.97 24 12 96 42792 1396893 53102 58% 10 4023 535 45%
c - 114.98 25 12 97 44742 1425993 54298 58% 10 4023 535 45%
c W 115.72 25 12 97 45004 1431113 57814 58% 10 4023 535 45%
c - 118.27 25 12 98 46825 1455393 55523 58% 10 4023 535 45%
c - 121.48 25 13 99 49576 1485093 56960 59% 10 4023 535 45%
c s 121.60 25 13 99 49576 1485093 56382 59% 10 4023 535 45%
c 
c  seconds   reductions         redundant  irredundant
c          MB      restarts            trail     variables
c           level        conflicts         glue      remaining
c 
c w 121.69 25 13 99 49576 1485093 56374 59% 10 4023 535 45%
c F 121.70 25 13 99 49576 1485114 56387 59% 10 4023 535 45%
c - 124.83 25 13 100 51368 1515095 56330 59% 10 4023 535 45%
c B 127.34 25 12 100 52681 1540117 73583 58% 10 4023 535 45%
c - 127.96 25 12 101 52986 1545396 56822 58% 10 4023 535 45%
c - 130.87 25 12 102 53720 1575996 55843 58% 10 4023 535 45%
c W 133.32 25 12 102 55526 1596119 69955 58% 10 4023 535 45%
c - 134.57 25 12 103 56740 1606897 59394 58% 10 4023 535 45%
c - 137.86 26 12 104 58716 1638097 58765 59% 10 4023 535 45%
c # 139.52 26 12 104 59995 1653122 69760 59% 10 4023 535 45%
c - 141.44 26 12 105 61321 1669602 60129 59% 10 4023 535 45%
c - 144.79 26 12 106 63429 1701402 60010 59% 10 4023 535 45%
c B 145.81 26 12 106 64078 1711125 66391 59% 10 4023 535 45%
c - 148.31 26 12 107 65558 1733503 60613 59% 10 4023 535 45%
c - 151.83 26 12 108 67344 1765903 61175 59% 10 4023 535 45%
c W 152.53 26 12 108 67450 1770127 63786 59% 10 4023 535 45%
c - 155.76 26 12 109 69318 1798603 62024 59% 10 4023 535 45%
c F 159.11 26 12 109 71376 1830129 83554 59% 10 4023 535 45%
c - 159.32 27 12 110 71561 1831604 63478 59% 10 4023 535 45%
c s 159.47 27 12 110 71561 1831604 62707 59% 10 4023 535 45%
c 
c  seconds    reductions         redundant  irredundant
c          MB       restarts            trail     variables
c           level         conflicts         glue      remaining
c 
c w 159.59 27 12 110 71561 1831604 62700 59% 10 4023 535 45%
c - 163.31 31 12 111 73548 1864906 63616 59% 10 4023 535 45%
c B 166.19 31 12 111 75214 1891130 81250 59% 10 4023 535 45%
c - 167.02 31 12 112 75677 1898506 64392 59% 10 4023 535 45%
c - 170.66 31 12 113 77611 1932408 64490 59% 10 4023 535 45%
c W 173.29 31 12 113 78552 1953131 78152 59% 10 4023 535 45%
c - 174.95 22 12 114 79558 1966609 65676 59% 10 4023 535 45%
c - 178.82 22 12 115 81350 2001110 66425 59% 10 4023 535 45%
c # 180.39 22 12 115 82255 2016135 76386 58% 10 4023 535 45%
c - 182.70 23 12 116 83967 2035910 68063 59% 10 4023 535 45%
c } 183.97 23 12 116 84969 2047009 75911 59% 10 4023 535 45%
c [ 183.97 23 22 116 84969 2047009 75911 61% 17 4023 535 45%
c - 186.29 23 21 117 84980 2071010 70758 61% 16 4023 535 45%
c I 187.29 23 21 117 84984 2080136 77432 61% 16 4023 535 45%
c - 190.04 25 23 118 84990 2106411 71850 61% 17 4023 535 45%
c - 194.06 24 23 119 85005 2142111 69965 61% 17 4023 535 45%
c B 194.37 24 22 119 85005 2145137 72130 61% 17 4023 535 45%
c p 197.52 24 23 119 85020 2175024 97414 61% 17 4023 535 45%
c - 197.89 24 23 120 85020 2178111 69426 61% 17 4023 535 45%
c W 201.88 24 21 120 85022 2211138 94463 61% 16 4023 535 45%
c 
c  seconds    reductions         redundant  irredundant
c          MB       restarts            trail     variables
c           level         conflicts         glue      remaining
c 
c - 202.31 30 21 121 85022 2214413 67270 61% 16 4023 535 45%
c s 202.46 30 21 121 85022 2214413 66432 61% 16 4023 535 45%
c w 202.59 30 21 121 85022 2214413 66424 61% 16 4023 535 45%
c - 206.72 30 20 122 85023 2251013 68204 61% 16 4023 535 45%
c O 209.81 30 20 122 85023 2278139 90160 60% 16 4023 535 45%
c - 210.94 30 20 123 85023 2287913 69422 60% 16 4023 535 45%
c p 215.02 30 19 123 85024 2325026 97399 60% 15 4023 535 45%
c - 215.05 30 19 124 85024 2325114 68403 60% 15 4023 535 45%
c B 217.41 30 19 124 85024 2346142 84664 60% 15 4023 535 45%
c - 219.56 30 18 125 85024 2362615 67380 60% 14 4023 535 45%
c - 223.67 35 20 126 85024 2400415 71136 61% 15 4023 535 45%
c W 225.79 35 20 126 85024 2415143 83039 61% 15 4023 535 45%
c - 228.70 35 20 127 85030 2438515 71236 61% 15 4023 535 45%
c - 233.50 36 19 128 85047 2476915 72563 61% 15 4023 535 45%
c p 233.89 36 18 128 85049 2480026 74845 61% 14 4023 535 45%
c I 234.52 36 18 128 85053 2485144 78445 61% 14 4023 535 45%
c - 237.87 26 24 129 85057 2515616 77330 60% 17 4023 535 45%
c - 242.93 27 28 130 85076 2554616 79678 60% 19 4023 535 45%
c B 243.12 27 28 130 85077 2556145 81046 60% 19 4023 535 45%
c - 247.66 26 27 131 85086 2593919 78172 60% 19 4023 535 45%
c 
c  seconds    reductions         redundant  irredundant
c          MB       restarts            trail     variables
c           level         conflicts         glue      remaining
c 
c s 247.87 26 27 131 85086 2593919 77960 60% 19 4023 535 45%
c w 248.04 26 27 131 85086 2593919 77951 60% 19 4023 535 45%
c W 252.70 26 27 131 85087 2628147 107407 60% 19 4023 535 45%
c - 253.54 35 27 132 85090 2633519 78440 60% 19 4023 535 45%
c p 254.33 35 27 132 85094 2640026 84172 60% 19 4023 535 45%
c - 258.80 35 26 133 85109 2673419 79069 60% 19 4023 535 45%
c O 262.36 35 26 133 85118 2701152 102441 60% 18 4023 535 45%
c - 263.98 35 24 134 85118 2713619 77385 59% 17 4023 535 45%
c - 268.85 35 22 135 85139 2754120 75567 60% 16 4023 535 45%
c B 271.41 35 21 135 85148 2775157 92111 60% 15 4023 535 45%
c - 273.70 35 21 136 85149 2794922 79190 60% 16 4023 535 45%
c p 274.80 35 21 136 85150 2805027 87601 60% 16 4023 535 45%
c - 278.53 35 22 137 85151 2836022 79984 60% 16 4023 535 45%
c W 280.59 35 22 137 85151 2850158 92045 61% 17 4023 535 45%
c - 284.16 35 22 138 85151 2877425 78256 61% 17 4023 535 45%
c - 289.41 35 21 139 85165 2919125 78116 61% 16 4023 535 45%
c I 290.20 35 21 139 85166 2926160 83751 61% 16 4023 535 45%
c - 294.26 35 24 140 85181 2961127 82538 60% 18 4023 535 45%
c p 295.97 35 24 140 85182 2975029 94486 60% 18 4023 535 45%
c B 299.86 35 25 140 85196 3003164 117707 60% 18 4023 535 45%
c 
c  seconds    reductions         redundant  irredundant
c          MB       restarts            trail     variables
c           level         conflicts         glue      remaining
c 
c - 299.93 41 25 141 85196 3003430 82622 60% 18 4023 535 45%
c s 300.17 41 25 141 85196 3003430 82414 60% 18 4023 535 45%
c w 300.36 41 25 141 85196 3003430 82407 60% 18 4023 535 45%
c - 305.69 41 23 142 85212 3046031 80657 60% 17 4023 535 45%
c W 310.76 41 21 142 85214 3081166 107560 60% 16 4023 535 45%
c - 311.73 41 21 143 85214 3088932 80970 60% 16 4023 535 45%
c - 317.22 41 20 144 85232 3132134 82273 61% 15 4023 535 45%
c p 319.33 41 20 144 85242 3150029 97653 61% 15 4023 535 45%
c O 320.53 41 20 144 85244 3160167 105720 61% 15 4023 535 45%
c - 322.46 41 19 145 85245 3175636 82627 61% 15 4023 535 45%
c - 327.69 41 19 146 85265 3219436 80348 61% 15 4023 535 45%
c B 330.23 41 18 146 85275 3240171 95148 61% 14 4023 535 45%
c - 333.10 41 18 147 85277 3263536 80841 61% 14 4023 535 45%
c - 338.77 41 19 148 85278 3307938 86025 61% 15 4023 535 45%
c W 341.00 41 19 148 85278 3321173 97404 61% 15 4023 535 45%
c p 342.28 41 20 148 85278 3330029 104481 61% 15 4023 535 45%
c - 345.41 41 20 149 85278 3352639 86425 61% 15 4023 535 45%
c - 351.57 42 19 150 85279 3397640 85402 61% 15 4023 535 45%
c I 352.20 42 20 150 85279 3403174 90033 61% 16 4023 535 45%
c - 357.20 51 24 151 85279 3442942 89330 61% 18 4023 535 45%
c 
c  seconds    reductions         redundant  irredundant
c          MB       restarts            trail     variables
c           level         conflicts         glue      remaining
c 
c s 357.47 30 24 151 85279 3442942 89218 61% 18 4023 535 45%
c w 357.69 30 24 151 85279 3442942 89212 61% 18 4023 535 45%
c B 363.43 32 25 151 85279 3486178 125969 60% 19 4023 535 45%
c - 363.80 33 25 152 85279 3488543 89550 60% 18 4023 535 45%
c p 366.99 33 24 152 85280 3515030 111527 61% 18 4023 535 45%
c - 369.57 32 23 153 85280 3534443 87649 61% 17 4023 535 45%
c W 374.65 32 22 153 85280 3570179 115424 61% 17 4023 535 45%
c - 376.00 39 22 154 85280 3580645 86303 61% 17 4023 535 45%
c - 382.03 39 20 155 85280 3627146 86344 61% 16 4023 535 45%
c ] 385.05 39 20 155 85280 3650560 104438 61% 16 4023 535 45%
c 1 385.05 39 20 155 85280 3650560 104438 61% 16 4023 535 45%
c 
c --- [ result ] -------------------------------------------------------------
c 
s SATISFIABLE
v -1 -2 -3 -4 -5 -6 -7 -8 -9 10 -11 -12 -13 -14 -15 16 -17 -18 -19 -20 -21 -22
v -23 -24 -25 -26 27 -28 -29 -30 -31 32 -33 -34 -35 -36 -37 38 -39 -40 41 -42
v -43 -44 -45 46 -47 48 -49 -50 -51 -52 -53 -54 -55 -56 -57 -58 -59 -60 -61 62
v -63 64 -65 66 -67 -68 -69 -70 -71 72 -73 -74 -75 76 -77 -78 -79 -80 -81 -82
v 83 84 -85 86 87 -88 -89 -90 -91 -92 -93 -94 -95 -96 -97 -98 -99 -100 -101
v -102 103 104 105 106 -107 -108 -109 -110 -111 -112 -113 114 115 -116 -117
v -118 -119 -120 -121 -122 -123 -124 -125 126 -127 -128 -129 -130 -131 -132
v -133 -134 135 136 -137 138 -139 140 -141 -142 -143 -144 -145 -146 -147 -148
v -149 -150 -151 -152 153 -154 -155 -156 -157 -158 -159 -160 -161 -162 -163
v -164 165 -166 -167 168 -169 -170 171 -172 173 -174 175 -176 -177 -178 -179
v -180 181 -182 -183 -184 -185 -186 -187 -188 189 190 -191 -192 -193 -194 -195
v 196 -197 -198 -199 -200 -201 202 -203 -204 -205 -206 -207 -208 -209 210 -211
v 212 -213 214 -215 -216 -217 218 -219 -220 221 -222 -223 224 -225 -226 227
v -228 -229 -230 -231 -232 -233 -234 -235 -236 -237 -238 -239 -240 -241 -242
v -243 -244 -245 -246 -247 -248 -249 -250 -251 252 -253 -254 -255 -256 -257
v -258 -259 -260 -261 -262 -263 -264 -265 266 -267 -268 -269 -270 -271 -272
v -273 -274 -275 -276 -277 278 -279 -280 -281 -282 -283 284 -285 -286 287 -288
v 289 -290 -291 -292 -293 294 295 -296 297 -298 -299 -300 -301 -302 303 -304
v -305 -306 -307 -308 -309 -310 -311 -312 -313 -314 -315 -316 -317 318 -319
v -320 -321 322 -323 324 -325 -326 -327 328 329 -330 331 332 333 -334 -335
v -336 -337 -338 -339 -340 -341 -342 -343 344 -345 -346 -347 -348 -349 -350
v 351 -352 -353 -354 355 -356 -357 -358 -359 360 -361 -362 -363 -364 -365 -366
v -367 -368 369 -370 -371 372 -373 -374 375 -376 -377 -378 -379 -380 -381 382
v -383 384 385 386 -387 -388 -389 -390 -391 392 393 -394 -395 -396 397 -398
v 399 -400 -401 -402 -403 404 -405 -406 407 -408 -409 -410 -411 -412 -413 -414
v -415 -416 -417 -418 -419 420 -421 -422 -423 -424 -425 -426 -427 -428 -429
v -430 -431 -432 -433 -434 435 436 -437 -438 -439 -440 441 -442 -443 444 -445
v -446 -447 -448 -449 -450 -451 -452 -453 454 -455 -456 -457 -458 -459 460
v -461 462 -463 -464 -465 -466 -467 468 -469 470 -471 -472 -473 -474 -475 -476
v -477 -478 -479 -480 481 -482 -483 -484 -485 -486 -487 488 -489 -490 491 -492
v 493 -494 -495 -496 -497 -498 -499 -500 -501 502 503 -504 -505 -506 -507 -508
v -509 510 -511 512 -513 -514 -515 -516 -517 518 -519 -520 -521 522 -523 -524
v -525 -526 -527 -528 -529 -530 531 -532 533 -534 535 -536 -537 -538 -539 540
v -541 -542 -543 544 -545 -546 547 548 -549 -550 551 -552 -553 -554 -555 -556
v -557 -558 -559 -560 -561 562 -563 564 -565 -566 -567 -568 -569 -570 571 -572
v -573 -574 575 -576 -577 578 579 -580 -581 -582 -583 -584 -585 586 -587 -588
v 589 590 591 592 593 594 595 596 597 -598 599 600 601 602 603 -604 605 606
v 607 608 609 610 611 612 613 614 -615 616 617 618 619 -620 621 622 623 624
v 625 -626 627 628 -629 630 631 632 633 -634 635 -636 637 638 639 640 641 642
v 643 644 645 646 647 648 649 -650 651 -652 653 -654 655 656 657 658 659 -660
v 661 662 663 -664 665 666 667 668 669 670 -671 -672 673 -674 -675 676 677 678
v 679 680 681 682 683 684 685 686 687 688 689 690 -691 -692 -693 -694 695 696
v 697 698 699 700 701 -702 -703 704 705 706 707 708 709 710 711 712 713 -714
v 715 716 717 718 719 720 721 722 -723 -724 725 -726 727 -728 729 730 731 732
v 733 734 735 736 737 738 739 740 -741 742 743 744 745 746 747 748 749 750 751
v 752 -753 754 755 -756 757 758 -759 760 -761 762 -763 764 765 766 767 768
v -769 770 771 772 773 774 775 776 -777 -778 779 780 781 782 783 -784 785 786
v 787 788 789 -790 791 792 793 794 795 796 797 -798 799 -800 801 -802 803 804
v 805 -806 807 808 -809 810 811 -812 813 814 -815 816 817 818 819 820 821 822
v 823 824 825 826 827 828 829 830 831 832 833 834 835 836 837 838 839 -840 841
v 842 843 844 845 846 847 848 849 850 851 852 853 -854 855 856 857 858 859 860
v 861 862 863 864 865 -866 867 868 869 870 871 -872 873 874 -875 876 -877 878
v 879 880 881 -882 -883 884 -885 886 887 888 889 890 -891 892 893 894 895 896
v 897 898 899 900 901 902 903 904 905 -906 907 908 909 -910 911 -912 913 914
v 915 -916 -917 918 -919 -920 -921 922 923 924 925 926 927 928 929 930 931
v -932 933 934 935 936 937 938 -939 940 941 942 -943 944 945 946 947 -948 949
v 950 951 952 953 954 955 956 -957 958 959 -960 961 962 -963 964 965 966 967
v 968 969 -970 971 -972 -973 -974 975 976 977 978 979 -980 -981 982 983 984
v -985 986 -987 988 989 990 991 -992 993 994 -995 996 997 998 999 1000 1001
v 1002 1003 1004 1005 1006 1007 -1008 1009 1010 1011 1012 1013 1014 1015 1016
v 1017 1018 1019 1020 1021 1022 -1023 -1024 1025 1026 1027 1028 -1029 1030
v 1031 -1032 1033 1034 1035 1036 1037 1038 1039 1040 1041 -1042 1043 1044 1045
v 1046 1047 -1048 1049 -1050 1051 1052 1053 1054 1055 -1056 1057 -1058 1059
v 1060 1061 1062 1063 1064 1065 1066 1067 1068 -1069 1070 1071 1072 1073 1074
v 1075 -1076 1077 1078 -1079 1080 -1081 1082 1083 1084 1085 1086 1087 1088
v 1089 -1090 -1091 1092 1093 1094 1095 1096 1097 -1098 1099 -1100 1101 1102
v 1103 1104 1105 -1106 1107 1108 1109 -1110 1111 1112 1113 1114 1115 1116 1117
v 1118 -1119 1120 -1121 1122 -1123 1124 1125 1126 1127 -1128 1129 1130 1131
v -1132 1133 1134 -1135 -1136 1137 1138 -1139 1140 1141 1142 1143 1144 1145
v 1146 1147 1148 1149 -1150 1151 -1152 1153 1154 1155 1156 1157 1158 -1159
v 1160 1161 1162 -1163 1164 1165 -1166 -1167 1168 1169 1170 1171 1172 1173
v -1174 1175 1176 0
c 
c --- [ run-time profiling ] -------------------------------------------------
c 
c process time taken by individual solving procedures
c (percentage relative to process time for solving)
c 
c       381.48   99.07% search
c       247.54   64.29% stable
c       127.55   33.12% unstable
c         6.40    1.66% walk
c         3.56    0.93% simplify
c         1.43    0.37% subsume
c         1.18    0.31% vivify
c         0.63    0.16% probe
c         0.12    0.03% ternary
c         0.01    0.00% elim
c         0.01    0.00% parse
c         0.00    0.00% lucky
c   =================================
c       385.04  100.00% solve
c 
c last line shows process time for solving
c (percentage relative to total process time)
c 
c --- [ statistics ] ---------------------------------------------------------
c 
c chronological:            497221        13.62 %  of conflicts
c conflicts:               3650560      9480.91    per second
c decisions:               4794176     12451.01    per second
c eliminated:                   15         1.28 %  of all variables
c fixed:                        76         6.46 %  of all variables
c learned:                 3585054        98.21 %  per conflict
c learned_lits:          162528100       100.00 %  learned literals
c minimized:                     0         0.00 %  learned literals
c shrunken:               62687816        38.57 %  learned literals
c minishrunken:           16988879        10.45 %  learned literals
c otfs:                       1856         0.05 %  of conflict
c propagations:          361337086         0.94 M  per second
c reduced:                 2695387        73.83 %  per conflict
c rephased:                     84     43459.05    interval
c restarts:                  85280        42.81    interval
c stabilizing:                   6        62.61 %  of conflicts
c substituted:                 550        46.77 %  of all variables
c subsumed:                 792062        21.96 %  of all clauses
c strengthened:              16552         0.46 %  of all clauses
c ternary:                       3         1.49 %  of resolved
c trail reuses:                  0         0.00 %  of incremental calls
c vivified:                    435         0.01 %  of all clauses
c walked:                       27    135205.93    interval
c weakened:                   1246         2.09    average size
c 
c seconds are measured in process time for solving
c 
c --- [ resources ] ----------------------------------------------------------
c 
c total process time since initialization:       385.05    seconds
c total real time since initialization:          385.06    seconds
c maximum resident set size of process:           50.75    MB
c 
c --- [ shutting down ] ------------------------------------------------------
c 
c exit 10
